Optimal - objective value 10.00000000
      0 x_0_0                       1                       0
      2 x_1_1                       1                       0
      5 x_2_2                       1                       0
      9 x_3_3                       1                       1
     14 x_4_4                       1                       0
     20 x_5_5                       1                       1
     27 x_6_6                       1                       1
     35 x_7_7                       1                       1
     41 x_8_5                       1                       0
     54 x_9_9                       1                       1
     62 x_10_7                      1                       0
     72 x_11_6                      1                       0
     82 x_12_4                      1                      -1
     93 x_13_2                      1                      -1
    119 x_14_14                     1                       1
    121 x_15_1                      1                       0
    142 x_16_6                      1                       0
    158 x_17_5                      1                       0
    173 x_18_2                      1                       1
    193 x_19_3                      1                       0
    212 x_20_2                      1                      -1
    233 x_21_2                      1                       0
    253 x_22_0                      1                       0
    281 x_23_5                      1                       0
    306 x_24_6                      1                       0
    326 x_25_1                      1                       0
    358 x_26_7                      1                       0
    392 x_27_14                     1                       0
    410 x_28_4                      1                       0
    435 x_29_0                      1                       0
    465 x_30_0                      1                      -1
    499 x_31_3                      1                       0
    532 x_32_4                      1                      -1
    568 x_33_7                      1                       0
    609 x_34_14                     1                       0
    631 x_35_1                      1                       0
    667 x_36_1                      1                       0
    706 x_37_3                      1                       0
    750 x_38_9                      1                       0
    780 x_39_0                      1                       0
    834 x_40_14                     1                       0
    870 x_41_9                      1                      -1
    906 x_42_3                      1                       0
    960 x_43_14                     1                       0
    999 x_44_9                      1                       0
   1041 x_45_6                      1                       0
   1086 x_46_5                      1                       0
   1135 x_47_7                      1                       0
   1185 x_48_9                      1                       0
   1229 x_49_4                      1                       0
   1277 x_50_2                      1                       0
   1333 x_51_7                      1                       0
   1387 x_52_9                      1                       0
   1437 x_53_6                      1                       0
   1494 x_54_9                      1                       0
   1544 x_55_4                      1                       0
   1601 x_56_5                      1                       0
   1658 x_57_5                      1                       0
